30 4
83 31 44 38 65 55 62 54 24 57 44 51 28 98 79 62 82 96 106 57 39 59 59 51 53 32 90 47 92 79
77 30 33 49 80 55 38 80 27 63 55 52 45 100 77 62 86 90 84 73 36 73 68 39 44 17 94 60 70 83
78 37 25 53 88 43 50 83 33 59 65 49 53 86 68 50 73 98 95 61 37 67 56 53 28 22 77 48 90 79
92 20 40 52 76 48 41 60 35 69 39 38 41 95 90 50 59 106 90 78 55 75 52 25 32 19 88 46 66 63
